30 1 4
986 265 139 686 19 225 637 174 301 551 36 680 44 568 956 537 852 808 547 659 284 200 108 198 213 187 503 655 967 232 
871 953 497 9 638 515 234 275 689 534 825 724 213 869 292 168 405 144 975 951 802 258 151 909 456 363 96 959 17 63 
190 887 15 686 896 652 201 129 926 889 662 751 613 874 619 905 41 24 48 16 975 849 274 125 758 729 488 853 688 504 
915 877 391 929 563 286 581 763 414 507 652 76 257 265 949 876 169 990 899 216 6 874 65 279 998 822 8 485 675 695 
9890 5890 5720 3800 5180 1350 6660 990 8980 800 6050 5490 1550 8620 8130 1030 7370 9810 930 6360 1970 980 5090 2610 3760 5070 820 3830 9920 7570 
73110
